n = 20;
m = 5;
p = [1,6,4,7,2];
v = [0.219,0.368,0.369,0.763,0.814];
ce = [5.2,1.399,4.356,10.025,10.886];
c = [|0,1.913,0.004,1.082,3.791|2.012,0,2.772,1.662,4.142|4.869,3.602,0,3.571,2.901|2.477,1.367,4.734,0,0.26|1.278,0.608,4.034,0.126,0|];
ct = 22.3;
maxM = 26;